WARNING: for repeatability, setting FPU to use double precision
============================[ Problem Statistics ]=============================
|                                                                             |
|  Number of variables:            50                                         |
|  Number of clauses:             218                                         |
|  Parse time:                   0.00 s                                       |
|                                                                             |
============================[ Search Statistics ]==============================
| Conflicts |          ORIGINAL         |          LEARNT          | Progress |
|           |    Vars  Clauses Literals |    Limit  Clauses Lit/Cl |          |
===============================================================================
===============================================================================
restarts              : 1
conflicts             : 47             (33239 /sec)
decisions             : 53             (0.00 % random) (37482 /sec)
propagations          : 595            (420792 /sec)
conflict literals     : 177            (9.69 % deleted)
Memory used           : 20.00 MB
CPU time              : 0.001414 s

UNSATISFIABLE
